\ Model Cl_35_Ins_10.lp
\ LP format - for model browsing. Use MPS format to capture full model detail.
Maximize
 
Subject To
 obj1: y[0] = 0
 obj2: y[1] = 0
 obj1_Exp: - y[0] + 96 x[0] + 95 x[1] + 94 x[2] + 89 x[3] + 88 x[4]
   + 85 x[5] + 84 x[6] + 84 x[7] + 74 x[8] + 71 x[9] + 70 x[10] + 64 x[11]
   + 61 x[12] + 60 x[13] + 59 x[14] + 55 x[15] + 49 x[16] + 48 x[17]
   + 48 x[18] + 48 x[19] + 44 x[20] + 42 x[21] + 30 x[22] + 25 x[23]
   + 20 x[24] + 20 x[25] + 19 x[26] + 18 x[27] + 15 x[28] + 14 x[29]
   + 14 x[30] + 10 x[31] + 7 x[32] + 4 x[33] + 2 x[34] = 0
 obj2_Exp: - y[1] + 22 x[0] + 99 x[1] + 54 x[2] + 78 x[3] + 4 x[4]
   + 30 x[5] + 81 x[6] + 42 x[7] + 52 x[8] + 46 x[9] + 59 x[10] + 47 x[11]
   + 99 x[12] + 13 x[13] + 98 x[14] + 19 x[15] + 90 x[16] + 94 x[17]
   + 45 x[18] + 50 x[19] + 21 x[20] + 11 x[21] + 41 x[22] + 5 x[23]
   + 90 x[24] + 59 x[25] + 62 x[26] + 17 x[27] + 11 x[28] + 80 x[29]
   + 87 x[30] + 45 x[31] + 67 x[32] + 38 x[33] + 91 x[34] = 0
 Budget: 106 x[0] + 105 x[1] + 104 x[2] + 99 x[3] + 98 x[4] + 95 x[5]
   + 94 x[6] + 94 x[7] + 84 x[8] + 81 x[9] + 80 x[10] + 74 x[11] + 71 x[12]
   + 70 x[13] + 69 x[14] + 65 x[15] + 59 x[16] + 58 x[17] + 58 x[18]
   + 58 x[19] + 54 x[20] + 52 x[21] + 40 x[22] + 35 x[23] + 30 x[24]
   + 30 x[25] + 29 x[26] + 28 x[27] + 25 x[28] + 24 x[29] + 24 x[30]
   + 20 x[31] + 17 x[32] + 14 x[33] + 12 x[34] <= 654
Bounds
Binaries
 x[0] x[1] x[2] x[3] x[4] x[5] x[6] x[7] x[8] x[9] x[10] x[11] x[12] x[13]
 x[14] x[15] x[16] x[17] x[18] x[19] x[20] x[21] x[22] x[23] x[24] x[25]
 x[26] x[27] x[28] x[29] x[30] x[31] x[32] x[33] x[34]
Generals
 y[0] y[1]
End
